9,1,7,2,1,1,2,1,10,2,4,3,3,2,6,7;7,1,5,3,4,1,6,2,10,1,8,3,3,1,1,2,2,6;5,1,5,2,8,1,8,2,7,4,2,2,9,5,1,3,3,4;7,3,9,3,6,4,3,3,1,4,2,5,10,8,4,8,8,10;9,2,5,5,5,6,10,3,4,4,8,5,7,10,1,5,9,9,6,9,10,9,3,10;5,4,6,3,7,6,9,4,8,4,2,3,10,7,1,6,2,7,3,6,2,8,4,10;7,5,10,4,9,7,4,5,8,6,6,8,1,7,3,8,5,10;6,1,7,9,5,8,9,8,4,7,6,10,8,9,3,7,1,8,2,9,10,10;5,7,7,8,6,5,10,5,4,6,8,7,3,5,9,10,1,9,2,10;4,2,7,7,9,6,6,6,2,4,10,6,8,8,5,9,4,9,3,9,1,10;
